[VALIDATOR STDOUT]
Checking plan: /home/jfan5/Safety-gen/runs/benchmark/optic/grippers_20260201_172244/grippers/optic_results/grippers-n3-r31-o29-s29001.plan
Plan executed successfully - checking goal
Plan valid
Final value: 106 

Successful plans:
Value: 106
 /home/jfan5/Safety-gen/runs/benchmark/optic/grippers_20260201_172244/grippers/optic_results/grippers-n3-r31-o29-s29001.plan 106
